diurno={1 ,2 ,3 ,4 ,5 ,6 ,7 ,8 ,9 ,10 ,11 ,12};
nocturno={0,13 ,14 ,15 };
sede = 15 ;
docentes = 2 ;
asignaturas = 5 ;
D=[|false, true 
|false, true
|false, true
|false, true
|false, true
|false, true
|false, true
|false, true
|false, true
|false, true
|false, true
|false, true
|true, false
|true, false
|true, false
|true, false
|true, true
|true, true
|true, true
|true, true
|true, true
|true, true
|true, true
|true, true
|true, true
|true, true
|true, true
|true, true
|true, false
|true, false
|true, false
|true, false
|];
A=[|5 ,1 ,51 ,0 ,5 
|7 ,3 ,51 ,1 ,4 
|6 ,10 ,51 ,0 ,1 
|5 ,8 ,51 ,0 ,1 
|4 ,10 ,51 ,0 ,1 
|];
Ai=[4,4,4,4,4];
Da=[|1 ,2 ,5 ,0 ,0 
|3 ,4,0,0 ,0 
|];
Ad=[1,1,2,2,1];
H = 32 ;